NAME: ../File/prFile/tspFile/tsp_file19.tsp
COMMENT: TSP file generated by Python
TYPE: TSP
DIMENSION: 30
EDGE_WEIGHT_TYPE: EUC_2D
NODE_COORD_SECTION
1 14 27
2 55 19
3 27 34
4 66 71
5 69 10
6 52 4
7 85 89
8 30 53
9 4 13
10 59 5
11 66 85
12 27 34
13 82 48
14 28 87
15 17 70
16 7 60
17 5 71
18 71 89
19 12 43
20 25 65
21 28 25
22 9 75
23 66 53
24 83 68
25 13 63
26 78 31
27 5 35
28 56 12
29 63 21
30 96 77
EOF
